data/lp_files/pEFS/35_2.lp
\ Model foo
\ LP format - for model browsing. Use MPS format to capture full model detail.
Minimize
  z
Subject To
 allocateEach[1]: x[1,1] + x[2,1] = 1
 allocateEach[2]: x[1,2] + x[2,2] = 1
 allocateEach[3]: x[1,3] + x[2,3] = 1
 allocateEach[4]: x[1,4] + x[2,4] = 1
 allocateEach[5]: x[1,5] + x[2,5] = 1
 allocateEach[6]: x[1,6] + x[2,6] = 1
 allocateEach[7]: x[1,7] + x[2,7] = 1
 allocateEach[8]: x[1,8] + x[2,8] = 1
 allocateEach[9]: x[1,9] + x[2,9] = 1
 allocateEach[10]: x[1,10] + x[2,10] = 1
 allocateEach[11]: x[1,11] + x[2,11] = 1
 allocateEach[12]: x[1,12] + x[2,12] = 1
 allocateEach[13]: x[1,13] + x[2,13] = 1
 allocateEach[14]: x[1,14] + x[2,14] = 1
 allocateEach[15]: x[1,15] + x[2,15] = 1
 allocateAllCash: cashProportion[1] + cashProportion[2] = 1
 findWorstP[1,2]: z + 0.0190539098623037 cashProportion[1]
   - 0.0190539098623037 cashProportion[2] + 0.0687846146029165 x[1,1]
   + 0.00275646562674661 x[1,2] + 0.0513439357756212 x[1,3]
   + 0.0906585031248412 x[1,4] + 0.0797977745033281 x[1,5]
   + 0.1186804532290026 x[1,6] + 0.0753264569889741 x[1,7]
   + 0.0873050149890758 x[1,8] + 0.0189141811899802 x[1,9]
   + 0.0842944972308318 x[1,10] + 0.0118261267212032 x[1,11]
   + 0.1056856867029114 x[1,12] + 0.0402037498094609 x[1,13]
   + 0.0745007875616076 x[1,14] + 0.0708678420811951 x[1,15]
   - 0.0687846146029165 x[2,1] - 0.00275646562674661 x[2,2]
   - 0.0513439357756212 x[2,3] - 0.0906585031248412 x[2,4]
   - 0.0797977745033281 x[2,5] - 0.1186804532290026 x[2,6]
   - 0.0753264569889741 x[2,7] - 0.0873050149890758 x[2,8]
   - 0.0189141811899802 x[2,9] - 0.0842944972308318 x[2,10]
   - 0.0118261267212032 x[2,11] - 0.1056856867029114 x[2,12]
   - 0.0402037498094609 x[2,13] - 0.0745007875616076 x[2,14]
   - 0.0708678420811951 x[2,15] >= 0
 findWorstP[2,1]: z - 0.0192236219866973 cashProportion[1]
   + 0.0192236219866973 cashProportion[2] - 0.0840328595778493 x[1,1]
   - 0.1105870894154738 x[1,2] - 0.1005523587384178 x[1,3]
   - 0.0566712376167835 x[1,4] - 0.0444706455292263 x[1,5]
   - 0.1274526137718028 x[1,6] - 0.118801983877789 x[1,7]
   - 0.0280408566045957 x[1,8] - 0.0854810391008471 x[1,9]
   - 7.5612913147675876e-04 x[1,10] - 0.0753694139358444 x[1,11]
   - 0.0126363275192557 x[1,12] - 0.00442143305694037 x[1,13]
   - 0.0417665227030976 x[1,14] - 0.0897358674339028 x[1,15]
   + 0.0840328595778493 x[2,1] + 0.1105870894154738 x[2,2]
   + 0.1005523587384178 x[2,3] + 0.0566712376167835 x[2,4]
   + 0.0444706455292263 x[2,5] + 0.1274526137718028 x[2,6]
   + 0.118801983877789 x[2,7] + 0.0280408566045957 x[2,8]
   + 0.0854810391008471 x[2,9] + 7.5612913147675876e-04 x[2,10]
   + 0.0753694139358444 x[2,11] + 0.0126363275192557 x[2,12]
   + 0.00442143305694037 x[2,13] + 0.0417665227030976 x[2,14]
   + 0.0897358674339028 x[2,15] >= 0
Bounds
 z <= 1
 -infinity <= cashProportion[1] <= 1
 -infinity <= cashProportion[2] <= 1
Binaries
 x[1,1] x[1,2] x[1,3] x[1,4] x[1,5] x[1,6] x[1,7] x[1,8] x[1,9] x[1,10]
 x[1,11] x[1,12] x[1,13] x[1,14] x[1,15] x[2,1] x[2,2] x[2,3] x[2,4] x[2,5]
 x[2,6] x[2,7] x[2,8] x[2,9] x[2,10] x[2,11] x[2,12] x[2,13] x[2,14]
 x[2,15]
End
