data/mps_files/pEFS/35_2.mps
NAME foo
ROWS
 N  OBJ
 E  allocateEach[1]
 E  allocateEach[2]
 E  allocateEach[3]
 E  allocateEach[4]
 E  allocateEach[5]
 E  allocateEach[6]
 E  allocateEach[7]
 E  allocateEach[8]
 E  allocateEach[9]
 E  allocateEach[10]
 E  allocateEach[11]
 E  allocateEach[12]
 E  allocateEach[13]
 E  allocateEach[14]
 E  allocateEach[15]
 E  allocateAllCash
 G  findWorstP[1,2]
 G  findWorstP[2,1]
COLUMNS
    z         OBJ       1
    z         findWorstP[1,2]  1
    z         findWorstP[2,1]  1
    cashProportion[1]  allocateAllCash  1
    cashProportion[1]  findWorstP[1,2]  1.9053909862303747e-02
    cashProportion[1]  findWorstP[2,1]  -1.9223621986697258e-02
    cashProportion[2]  allocateAllCash  1
    cashProportion[2]  findWorstP[1,2]  -1.9053909862303747e-02
    cashProportion[2]  findWorstP[2,1]  1.9223621986697258e-02
    MARKER    'MARKER'                 'INTORG'
    x[1,1]    allocateEach[1]  1
    x[1,1]    findWorstP[1,2]  6.8784614602916516e-02
    x[1,1]    findWorstP[2,1]  -8.4032859577849270e-02
    x[1,2]    allocateEach[2]  1
    x[1,2]    findWorstP[1,2]  2.7564656267466086e-03
    x[1,2]    findWorstP[2,1]  -1.1058708941547375e-01
    x[1,3]    allocateEach[3]  1
    x[1,3]    findWorstP[1,2]  5.1343935775621158e-02
    x[1,3]    findWorstP[2,1]  -1.0055235873841778e-01
    x[1,4]    allocateEach[4]  1
    x[1,4]    findWorstP[1,2]  9.0658503124841222e-02
    x[1,4]    findWorstP[2,1]  -5.6671237616783512e-02
    x[1,5]    allocateEach[5]  1
    x[1,5]    findWorstP[1,2]  7.9797774503328076e-02
    x[1,5]    findWorstP[2,1]  -4.4470645529226319e-02
    x[1,6]    allocateEach[6]  1
    x[1,6]    findWorstP[1,2]  1.1868045322900259e-01
    x[1,6]    findWorstP[2,1]  -1.2745261377180281e-01
    x[1,7]    allocateEach[7]  1
    x[1,7]    findWorstP[1,2]  7.5326456988974139e-02
    x[1,7]    findWorstP[2,1]  -1.1880198387778905e-01
    x[1,8]    allocateEach[8]  1
    x[1,8]    findWorstP[1,2]  8.7305014989075766e-02
    x[1,8]    findWorstP[2,1]  -2.8040856604595731e-02
    x[1,9]    allocateEach[9]  1
    x[1,9]    findWorstP[1,2]  1.8914181189980183e-02
    x[1,9]    findWorstP[2,1]  -8.5481039100847131e-02
    x[1,10]   allocateEach[10]  1
    x[1,10]   findWorstP[1,2]  8.4294497230831766e-02
    x[1,10]   findWorstP[2,1]  -7.5612913147675876e-04
    x[1,11]   allocateEach[11]  1
    x[1,11]   findWorstP[1,2]  1.1826126721203190e-02
    x[1,11]   findWorstP[2,1]  -7.5369413935844370e-02
    x[1,12]   allocateEach[12]  1
    x[1,12]   findWorstP[1,2]  1.0568568670291142e-01
    x[1,12]   findWorstP[2,1]  -1.2636327519255662e-02
    x[1,13]   allocateEach[13]  1
    x[1,13]   findWorstP[1,2]  0.0402037498094609
    x[1,13]   findWorstP[2,1]  -0.00442143305694037
    x[1,14]   allocateEach[14]  1
    x[1,14]   findWorstP[1,2]  7.4500787561607648e-02
    x[1,14]   findWorstP[2,1]  -4.1766522703097574e-02
    x[1,15]   allocateEach[15]  1
    x[1,15]   findWorstP[1,2]  7.0867842081195051e-02
    x[1,15]   findWorstP[2,1]  -0.0897358674339028
    x[2,1]    allocateEach[1]  1
    x[2,1]    findWorstP[1,2]  -6.8784614602916516e-02
    x[2,1]    findWorstP[2,1]  8.4032859577849270e-02
    x[2,2]    allocateEach[2]  1
    x[2,2]    findWorstP[1,2]  -2.7564656267466086e-03
    x[2,2]    findWorstP[2,1]  1.1058708941547375e-01
    x[2,3]    allocateEach[3]  1
    x[2,3]    findWorstP[1,2]  -5.1343935775621158e-02
    x[2,3]    findWorstP[2,1]  1.0055235873841778e-01
    x[2,4]    allocateEach[4]  1
    x[2,4]    findWorstP[1,2]  -9.0658503124841222e-02
    x[2,4]    findWorstP[2,1]  5.6671237616783512e-02
    x[2,5]    allocateEach[5]  1
    x[2,5]    findWorstP[1,2]  -7.9797774503328076e-02
    x[2,5]    findWorstP[2,1]  4.4470645529226319e-02
    x[2,6]    allocateEach[6]  1
    x[2,6]    findWorstP[1,2]  -1.1868045322900259e-01
    x[2,6]    findWorstP[2,1]  1.2745261377180281e-01
    x[2,7]    allocateEach[7]  1
    x[2,7]    findWorstP[1,2]  -7.5326456988974139e-02
    x[2,7]    findWorstP[2,1]  1.1880198387778905e-01
    x[2,8]    allocateEach[8]  1
    x[2,8]    findWorstP[1,2]  -8.7305014989075766e-02
    x[2,8]    findWorstP[2,1]  2.8040856604595731e-02
    x[2,9]    allocateEach[9]  1
    x[2,9]    findWorstP[1,2]  -1.8914181189980183e-02
    x[2,9]    findWorstP[2,1]  8.5481039100847131e-02
    x[2,10]   allocateEach[10]  1
    x[2,10]   findWorstP[1,2]  -8.4294497230831766e-02
    x[2,10]   findWorstP[2,1]  7.5612913147675876e-04
    x[2,11]   allocateEach[11]  1
    x[2,11]   findWorstP[1,2]  -1.1826126721203190e-02
    x[2,11]   findWorstP[2,1]  7.5369413935844370e-02
    x[2,12]   allocateEach[12]  1
    x[2,12]   findWorstP[1,2]  -1.0568568670291142e-01
    x[2,12]   findWorstP[2,1]  1.2636327519255662e-02
    x[2,13]   allocateEach[13]  1
    x[2,13]   findWorstP[1,2]  -0.0402037498094609
    x[2,13]   findWorstP[2,1]  0.00442143305694037
    x[2,14]   allocateEach[14]  1
    x[2,14]   findWorstP[1,2]  -7.4500787561607648e-02
    x[2,14]   findWorstP[2,1]  4.1766522703097574e-02
    x[2,15]   allocateEach[15]  1
    x[2,15]   findWorstP[1,2]  -7.0867842081195051e-02
    x[2,15]   findWorstP[2,1]  0.0897358674339028
    MARKER    'MARKER'                 'INTEND'
RHS
    RHS1      allocateEach[1]  1
    RHS1      allocateEach[2]  1
    RHS1      allocateEach[3]  1
    RHS1      allocateEach[4]  1
    RHS1      allocateEach[5]  1
    RHS1      allocateEach[6]  1
    RHS1      allocateEach[7]  1
    RHS1      allocateEach[8]  1
    RHS1      allocateEach[9]  1
    RHS1      allocateEach[10]  1
    RHS1      allocateEach[11]  1
    RHS1      allocateEach[12]  1
    RHS1      allocateEach[13]  1
    RHS1      allocateEach[14]  1
    RHS1      allocateEach[15]  1
    RHS1      allocateAllCash  1
BOUNDS
 UP BND1      z         1
 MI BND1      cashProportion[1]
 UP BND1      cashProportion[1]  1
 MI BND1      cashProportion[2]
 UP BND1      cashProportion[2]  1
 BV BND1      x[1,1]  
 BV BND1      x[1,2]  
 BV BND1      x[1,3]  
 BV BND1      x[1,4]  
 BV BND1      x[1,5]  
 BV BND1      x[1,6]  
 BV BND1      x[1,7]  
 BV BND1      x[1,8]  
 BV BND1      x[1,9]  
 BV BND1      x[1,10] 
 BV BND1      x[1,11] 
 BV BND1      x[1,12] 
 BV BND1      x[1,13] 
 BV BND1      x[1,14] 
 BV BND1      x[1,15] 
 BV BND1      x[2,1]  
 BV BND1      x[2,2]  
 BV BND1      x[2,3]  
 BV BND1      x[2,4]  
 BV BND1      x[2,5]  
 BV BND1      x[2,6]  
 BV BND1      x[2,7]  
 BV BND1      x[2,8]  
 BV BND1      x[2,9]  
 BV BND1      x[2,10] 
 BV BND1      x[2,11] 
 BV BND1      x[2,12] 
 BV BND1      x[2,13] 
 BV BND1      x[2,14] 
 BV BND1      x[2,15] 
ENDATA
